experiments/scripts/extractfix/binutils/CVE-2018-10372/spec.smt2
(declare-fun output!i32!obs () (Array (_ BitVec 32) (_ BitVec 8) ) )
(assert (= false (bvsle (concat  (select  output!i32!obs (_ bv3 32) ) (concat  (select  output!i32!obs (_ bv2 32) ) (concat  (select  output!i32!obs (_ bv1 32) ) (select  output!i32!obs (_ bv0 32) ) ) ) ) (_ bv0 32)) ))
